NAME: Golden_7-C28-N361
TYPE: SoftCluVRP
DIMENSION:  361 
VEHICLES:  3 
GVRP_SETS:  28 
CAPACITY:  900 
EDGE_WEIGHT_TYPE: EUC_2D
NODE_COORD_SECTION 
1 0.000000 0.000000
2 30.000000 0.000000
3 29.544201 5.209400
4 28.190800 10.260600
5 25.980801 15.000000
6 22.981300 19.283600
7 19.283600 22.981300
8 15.000000 25.980801
9 10.260600 28.190800
10 5.209400 29.544201
11 0.000000 30.000000
12 -5.209400 29.544201
13 -10.260600 28.190800
14 -15.000000 25.980801
15 -19.283600 22.981300
16 -22.981300 19.283600
17 -25.980801 15.000000
18 -28.190800 10.260600
19 -29.544201 5.209400
20 -30.000000 0.000000
21 -29.544201 -5.209400
22 -28.190800 -10.260600
23 -25.980801 -15.000000
24 -22.981300 -19.283600
25 -19.283600 -22.981300
26 -15.000000 -25.980801
27 -10.260600 -28.190800
28 -5.209400 -29.544201
29 0.000000 -30.000000
30 5.209400 -29.544201
31 10.260600 -28.190800
32 15.000000 -25.980801
33 19.283600 -22.981300
34 22.981300 -19.283600
35 25.980801 -15.000000
36 28.190800 -10.260600
37 29.544201 -5.209400
38 60.000000 0.000000
39 59.088501 10.418900
40 56.381599 20.521200
41 51.961498 30.000000
42 45.962700 38.567299
43 38.567299 45.962700
44 30.000000 51.961498
45 20.521200 56.381599
46 10.418900 59.088501
47 0.000000 60.000000
48 -10.418900 59.088501
49 -20.521200 56.381599
50 -30.000000 51.961498
51 -38.567299 45.962700
52 -45.962700 38.567299
53 -51.961498 30.000000
54 -56.381599 20.521200
55 -59.088501 10.418900
56 -60.000000 0.000000
57 -59.088501 -10.418900
58 -56.381599 -20.521200
59 -51.961498 -30.000000
60 -45.962700 -38.567299
61 -38.567299 -45.962700
62 -30.000000 -51.961498
63 -20.521200 -56.381599
64 -10.418900 -59.088501
65 0.000000 -60.000000
66 10.418900 -59.088501
67 20.521200 -56.381599
68 30.000000 -51.961498
69 38.567299 -45.962700
70 45.962700 -38.567200
71 51.961498 -30.000000
72 56.381599 -20.521200
73 59.088501 -10.418900
74 90.000000 0.000000
75 88.632698 15.628300
76 84.572304 30.781799
77 77.942299 45.000000
78 68.944000 57.850899
79 57.850899 68.944000
80 45.000000 77.942299
81 30.781799 84.572304
82 15.628300 88.632698
83 0.000000 90.000000
84 -15.628300 88.632698
85 -30.781799 84.572304
86 -45.000000 77.942299
87 -57.850899 68.944000
88 -68.944000 57.850899
89 -77.942299 45.000000
90 -84.572304 30.781799
91 -88.632698 15.628300
92 -90.000000 0.000000
93 -88.632698 -15.628300
94 -84.572304 -30.781799
95 -77.942299 -45.000000
96 -68.944000 -57.850899
97 -57.850899 -68.944000
98 -45.000000 -77.942299
99 -30.781799 -84.572304
100 -15.628300 -88.632698
101 0.000000 -90.000000
102 15.628300 -88.632698
103 30.781799 -84.572304
104 45.000000 -77.942299
105 57.850899 -68.944000
106 68.944000 -57.850899
107 77.942299 -45.000000
108 84.572304 -30.781799
109 88.632698 -15.628300
110 120.000000 0.000000
111 118.176903 20.837799
112 112.763100 41.042400
113 103.922997 60.000000
114 91.925301 77.134499
115 77.134499 91.925301
116 60.000000 103.922997
117 41.042400 112.763100
118 20.837799 118.176903
119 0.000000 120.000000
120 -20.837799 118.176903
121 -41.042400 112.763100
122 -60.000000 103.922997
123 -77.134499 91.925301
124 -91.925301 77.134499
125 -103.922997 60.000000
126 -112.763100 41.042400
127 -118.176903 20.837799
128 -120.000000 0.000000
129 -118.176903 -20.837799
130 -112.763100 -41.042400
131 -103.922997 -60.000000
132 -91.925301 -77.134499
133 -77.134499 -91.925301
134 -60.000000 -103.923103
135 -41.042400 -112.763100
136 -20.837799 -118.176903
137 0.000000 -120.000000
138 20.837799 -118.176903
139 41.042400 -112.763100
140 60.000000 -103.922997
141 77.134499 -91.925301
142 91.925301 -77.134499
143 103.923103 -60.000000
144 112.763100 -41.042400
145 118.176903 -20.837799
146 150.000000 0.000000
147 147.721207 26.047199
148 140.953903 51.303001
149 129.903793 75.000000
150 114.906700 96.418098
151 96.418098 114.906700
152 75.000000 129.903793
153 51.303001 140.953903
154 26.047199 147.721207
155 0.000000 150.000000
156 -26.047199 147.721207
157 -51.303001 140.953903
158 -75.000000 129.903793
159 -96.418198 114.906700
160 -114.906700 96.418098
161 -129.903793 75.000000
162 -140.953903 51.303001
163 -147.721207 26.047199
164 -150.000000 0.000000
165 -147.721207 -26.047199
166 -140.953903 -51.303001
167 -129.903793 -75.000000
168 -114.906700 -96.418198
169 -96.418098 -114.906700
170 -75.000000 -129.903793
171 -51.303001 -140.953903
172 -26.047199 -147.721207
173 0.000000 -150.000000
174 26.047199 -147.721207
175 51.303001 -140.953903
176 75.000000 -129.903793
177 96.418198 -114.906700
178 114.906700 -96.418098
179 129.903793 -75.000000
180 140.953903 -51.303001
181 147.721207 -26.047199
182 180.000000 0.000000
183 177.265396 31.256701
184 169.144699 61.563599
185 155.884598 90.000000
186 137.888000 115.701797
187 115.701797 137.888000
188 90.000000 155.884598
189 61.563599 169.144699
190 31.256701 177.265396
191 0.000000 180.000000
192 -31.256701 177.265396
193 -61.563599 169.144699
194 -90.000000 155.884598
195 -115.701797 137.888000
196 -137.888000 115.701797
197 -155.884598 90.000000
198 -169.144699 61.563599
199 -177.265396 31.256701
200 -180.000000 0.000000
201 -177.265396 -31.256701
202 -169.144699 -61.563599
203 -155.884598 -90.000000
204 -137.888000 -115.701797
205 -115.701797 -137.888000
206 -90.000000 -155.884598
207 -61.563599 -169.144699
208 -31.256599 -177.265396
209 0.000000 -180.000000
210 31.256701 -177.265396
211 61.563599 -169.144699
212 90.000000 -155.884598
213 115.701797 -137.888000
214 137.888000 -115.701797
215 155.884598 -90.000000
216 169.144699 -61.563599
217 177.265396 -31.256599
218 210.000000 0.000000
219 206.809601 36.466099
220 197.335403 71.824203
221 181.865295 105.000000
222 160.869293 134.985397
223 134.985397 160.869293
224 105.000000 181.865295
225 71.824203 197.335403
226 36.466099 206.809601
227 0.000000 210.000000
228 -36.466099 206.809601
229 -71.824203 197.335403
230 -105.000000 181.865295
231 -134.985397 160.869293
232 -160.869293 134.985397
233 -181.865295 105.000000
234 -197.335403 71.824203
235 -206.809601 36.466099
236 -210.000000 0.000000
237 -206.809601 -36.466099
238 -197.335403 -71.824203
239 -181.865295 -105.000000
240 -160.869293 -134.985397
241 -134.985397 -160.869400
242 -105.000000 -181.865295
243 -71.824203 -197.335495
244 -36.466099 -206.809601
245 0.000000 -210.000000
246 36.466099 -206.809601
247 71.824303 -197.335403
248 105.000000 -181.865295
249 134.985397 -160.869293
250 160.869400 -134.985397
251 181.865402 -105.000000
252 197.335495 -71.824203
253 206.809601 -36.466099
254 240.000000 0.000000
255 236.353897 41.675598
256 225.526199 82.084801
257 207.846100 120.000000
258 183.850693 154.268997
259 154.268997 183.850693
260 120.000000 207.846100
261 82.084801 225.526199
262 41.675598 236.353897
263 0.000000 240.000000
264 -41.675598 236.353897
265 -82.084801 225.526199
266 -120.000000 207.846100
267 -154.268997 183.850693
268 -183.850693 154.268997
269 -207.846100 120.000000
270 -225.526199 82.084801
271 -236.353897 41.675499
272 -240.000000 0.000000
273 -236.353897 -41.675598
274 -225.526199 -82.084900
275 -207.846100 -120.000000
276 -183.850601 -154.268997
277 -154.268997 -183.850693
278 -120.000000 -207.846100
279 -82.084801 -225.526199
280 -41.675499 -236.353897
281 0.000000 -240.000000
282 41.675598 -236.353897
283 82.084900 -225.526199
284 120.000000 -207.846100
285 154.269104 -183.850601
286 183.850693 -154.268997
287 207.846100 -120.000000
288 225.526199 -82.084801
289 236.353897 -41.675499
290 270.000000 0.000000
291 265.898102 46.884998
292 253.716995 92.345398
293 233.826904 135.000000
294 206.832001 173.552704
295 173.552597 206.832001
296 135.000000 233.826904
297 92.345398 253.716995
298 46.884998 265.898102
299 0.000000 270.000000
300 -46.884998 265.898102
301 -92.345497 253.716995
302 -135.000000 233.826904
303 -173.552704 206.832001
304 -206.832001 173.552597
305 -233.826904 135.000000
306 -253.716995 92.345398
307 -265.898102 46.884998
308 -270.000000 0.000000
309 -265.898102 -46.884998
310 -253.716995 -92.345497
311 -233.826797 -135.000000
312 -206.832001 -173.552704
313 -173.552597 -206.832001
314 -135.000000 -233.826904
315 -92.345398 -253.716995
316 -46.884998 -265.898102
317 0.000000 -270.000000
318 46.884998 -265.898102
319 92.345497 -253.716995
320 135.000000 -233.826797
321 173.552704 -206.832001
322 206.832001 -173.552597
323 233.826904 -135.000000
324 253.716995 -92.345398
325 265.898102 -46.884998
326 300.000000 0.000000
327 295.442291 52.094501
328 281.907806 102.606003
329 259.807587 150.000000
330 229.813293 192.836304
331 192.836304 229.813293
332 150.000000 259.807587
333 102.606003 281.907806
334 52.094398 295.442291
335 0.000000 300.000000
336 -52.094501 295.442291
337 -102.606102 281.907806
338 -150.000000 259.807587
339 -192.836304 229.813293
340 -229.813293 192.836304
341 -259.807587 150.000000
342 -281.907806 102.606003
343 -295.442291 52.094398
344 -300.000000 0.000000
345 -295.442291 -52.094501
346 -281.907806 -102.606102
347 -259.807587 -150.000000
348 -229.813293 -192.836304
349 -192.836304 -229.813400
350 -150.000000 -259.807587
351 -102.606003 -281.907806
352 -52.094398 -295.442291
353 0.000000 -300.000000
354 52.094501 -295.442291
355 102.606102 -281.907806
356 150.000000 -259.807587
357 192.836304 -229.813293
358 229.813400 -192.836197
359 259.807587 -150.000000
360 281.907806 -102.606003
361 295.442291 -52.094398
GVRP_SET_SECTION 
 1 326  254  290  291  325  327  361 -1
 2  344  271  272  307  308  309  343  345 -1
 3  335  263  298  299  300  334  336 -1
 4  353  281  316  317  318  352  354 -1
 5  6  2  3  4  5  7  8  9  10  11  12  13  14  15  16  17  18  19  20  21  22  23  24  25  26  27  28  29  30  31  32  33  34  35  36  37  38  39  40  41  42  43  44  45  46  47  48  49  50  51  52  65  66  67  68  69  70  71  72  73  77  78  79  80 -1
 6  330  258  259  293  294  295  329  331 -1
 7  339  267  268  302  303  304  338  340 -1
 8  348  276  277  311  312  313  347  349 -1
 9  357  284  285  286  320  321  322  356  358 -1
 10  162  88  89  90  124  125  126  127  160  161  163  164  196  197  198  199  200  232  233  234  235 -1
 11  170  98  99  100  101  133  134  135  136  168  169  171  204  205  206  207  241  242  243 -1
 12  176  102  103  104  105  138  139  140  141  142  175  177  178  211  212  213  214  247  248  249 -1
 13  184  112  113  114  147  148  149  150  182  183  185  186  219  220  221  222  255  256  257 -1
 14  189  115  116  117  151  152  153  154  187  188  190  191  223  224  225  226  261  262 -1
 15  229  192  193  194  195  227  228  230  231  264  265  266 -1
 16  238  166  201  202  203  236  237  239  240  273  274  275  310  346 -1
 17  252  215  216  217  218  250  251  253  287  288  289 -1
 18  328  292 -1
 19  332  260  296  297  333 -1
 20  341  269  270  305  306  342 -1
 21  350  278  279  314  315  351 -1
 22  355  283  319 -1
 23  94  53  54  55  56  57  58  59  60  61  62  63  64  91  92  93  95  96  97  128  129  130  131  132  165  167 -1
 24  359  323  324  360 -1
 25  120  81  82  83  84  85  86  87  118  119  121  122  123  155  156  157  158  159 -1
 26  145  74  75  76  106  107  108  109  110  111  143  144  146  179  180  181 -1
 27  209  137  172  173  174  208  210  244  245  246  280  282 -1
 28  337  301 -1
 DEMAND_SECTION
 1 33 
 2 60 
 3 51 
 4 33 
 5 384 
 6 42 
 7 60 
 8 54 
 9 45 
 10 129 
 11 111 
 12 120 
 13 111 
 14 108 
 15 72 
 16 72 
 17 69 
 18 18 
 19 33 
 20 18 
 21 36 
 22 27 
 23 162 
 24 36 
 25 108 
 26 102 
 27 60 
 28 6 
EOF
